p edge 150 3646
n 1 11
n 2 11
n 3 11
n 4 12
n 5 12
n 6 12
n 7 9
n 8 10
n 9 14
n 10 11
n 11 14
n 12 12
n 13 11
n 14 12
n 15 11
n 16 13
n 17 9
n 18 12
n 19 12
n 20 11
n 21 11
n 22 9
n 23 13
n 24 13
n 25 12
n 26 12
n 27 12
n 28 9
n 29 10
n 30 11
n 31 11
n 32 11
n 33 12
n 34 11
n 35 11
n 36 11
n 37 12
n 38 12
n 39 13
n 40 11
n 41 10
n 42 13
n 43 12
n 44 12
n 45 12
n 46 13
n 47 10
n 48 9
n 49 11
n 50 12
n 51 10
n 52 13
n 53 11
n 54 14
n 55 10
n 56 13
n 57 12
n 58 11
n 59 11
n 60 10
n 61 11
n 62 11
n 63 12
n 64 9
n 65 14
n 66 12
n 67 10
n 68 11
n 69 10
n 70 12
n 71 11
n 72 11
n 73 13
n 74 11
n 75 11
n 76 10
n 77 12
n 78 11
n 79 11
n 80 10
n 81 12
n 82 14
n 83 12
n 84 12
n 85 12
n 86 11
n 87 12
n 88 12
n 89 10
n 90 13
n 91 10
n 92 13
n 93 12
n 94 13
n 95 12
n 96 9
n 97 11
n 98 13
n 99 11
n 100 10
n 101 10
n 102 12
n 103 12
n 104 11
n 105 9
n 106 12
n 107 10
n 108 10
n 109 10
n 110 11
n 111 12
n 112 11
n 113 12
n 114 10
n 115 11
n 116 11
n 117 10
n 118 11
n 119 8
n 120 13
n 121 9
n 122 11
n 123 11
n 124 11
n 125 11
n 126 10
n 127 12
n 128 10
n 129 10
n 130 11
n 131 10
n 132 13
n 133 12
n 134 12
n 135 9
n 136 10
n 137 10
n 138 12
n 139 12
n 140 10
n 141 11
n 142 11
n 143 11
n 144 9
n 145 11
n 146 9
n 147 10
n 148 11
n 149 11
n 150 11
e 1 3
e 1 4
e 1 9
e 1 11
e 1 16
e 1 18
e 1 19
e 1 20
e 1 21
e 1 23
e 1 24
e 1 25
e 1 26
e 1 30
e 1 31
e 1 33
e 1 34
e 1 37
e 1 38
e 1 39
e 1 41
e 1 42
e 1 43
e 1 44
e 1 45
e 1 46
e 1 50
e 1 52
e 1 54
e 1 56
e 1 57
e 1 59
e 1 60
e 1 64
e 1 65
e 1 66
e 1 67
e 1 68
e 1 70
e 1 72
e 1 73
e 1 74
e 1 75
e 1 78
e 1 81
e 1 82
e 1 84
e 1 85
e 1 86
e 1 87
e 1 88
e 1 90
e 1 92
e 1 93
e 1 94
e 1 95
e 1 98
e 1 99
e 1 101
e 1 102
e 1 103
e 1 104
e 1 106
e 1 108
e 1 110
e 1 111
e 1 112
e 1 114
e 1 116
e 1 118
e 1 120
e 1 122
e 1 123
e 1 125
e 1 126
e 1 127
e 1 129
e 1 131
e 1 132
e 1 133
e 1 134
e 1 139
e 1 140
e 1 141
e 1 148
e 1 150
e 2 9
e 2 10
e 2 11
e 2 16
e 2 18
e 2 20
e 2 23
e 2 27
e 2 28
e 2 36
e 2 37
e 2 38
e 2 39
e 2 42
e 2 43
e 2 45
e 2 46
e 2 47
e 2 49
e 2 50
e 2 52
e 2 54
e 2 65
e 2 66
e 2 67
e 2 71
e 2 72
e 2 78
e 2 79
e 2 82
e 2 84
e 2 85
e 2 89
e 2 90
e 2 93
e 2 95
e 2 98
e 2 103
e 2 104
e 2 110
e 2 111
e 2 116
e 2 120
e 2 123
e 2 126
e 2 127
e 2 128
e 2 130
e 2 132
e 2 133
e 2 135
e 2 148
e 2 150
e 3 5
e 3 6
e 3 8
e 3 10
e 3 12
e 3 14
e 3 15
e 3 18
e 3 20
e 3 22
e 3 23
e 3 35
e 3 36
e 3 40
e 3 42
e 3 46
e 3 48
e 3 49
e 3 50
e 3 62
e 3 65
e 3 69
e 3 71
e 3 72
e 3 76
e 3 80
e 3 82
e 3 83
e 3 85
e 3 107
e 3 115
e 3 116
e 3 117
e 3 120
e 3 121
e 3 124
e 3 128
e 3 133
e 3 135
e 3 143
e 3 149
e 3 150
e 4 6
e 4 8
e 4 10
e 4 12
e 4 15
e 4 18
e 4 20
e 4 22
e 4 28
e 4 35
e 4 40
e 4 42
e 4 45
e 4 46
e 4 47
e 4 48
e 4 62
e 4 69
e 4 71
e 4 72
e 4 76
e 4 80
e 4 83
e 4 89
e 4 98
e 4 107
e 4 115
e 4 117
e 4 120
e 4 121
e 4 124
e 4 126
e 4 135
e 4 143
e 5 8
e 5 9
e 5 17
e 5 23
e 5 25
e 5 31
e 5 32
e 5 33
e 5 34
e 5 40
e 5 42
e 5 43
e 5 44
e 5 46
e 5 48
e 5 50
e 5 51
e 5 56
e 5 61
e 5 68
e 5 71
e 5 73
e 5 74
e 5 75
e 5 80
e 5 82
e 5 85
e 5 87
e 5 89
e 5 90
e 5 96
e 5 97
e 5 100
e 5 102
e 5 105
e 5 106
e 5 108
e 5 109
e 5 111
e 5 119
e 5 132
e 5 137
e 5 139
e 5 141
e 5 142
e 5 143
e 5 145
e 5 146
e 6 16
e 6 19
e 6 21
e 6 23
e 6 25
e 6 26
e 6 27
e 6 28
e 6 30
e 6 31
e 6 33
e 6 34
e 6 36
e 6 37
e 6 38
e 6 41
e 6 42
e 6 43
e 6 44
e 6 45
e 6 47
e 6 49
e 6 50
e 6 54
e 6 56
e 6 59
e 6 60
e 6 61
e 6 66
e 6 67
e 6 68
e 6 71
e 6 72
e 6 73
e 6 74
e 6 75
e 6 78
e 6 79
e 6 82
e 6 84
e 6 85
e 6 86
e 6 87
e 6 88
e 6 89
e 6 92
e 6 93
e 6 94
e 6 95
e 6 97
e 6 99
e 6 101
e 6 102
e 6 103
e 6 104
e 6 106
e 6 108
e 6 114
e 6 122
e 6 123
e 6 126
e 6 128
e 6 129
e 6 130
e 6 131
e 6 132
e 6 133
e 6 135
e 6 137
e 6 139
e 6 140
e 6 141
e 6 146
e 6 148
e 6 150
e 7 9
e 7 11
e 7 16
e 7 18
e 7 20
e 7 23
e 7 37
e 7 38
e 7 39
e 7 42
e 7 43
e 7 45
e 7 46
e 7 50
e 7 52
e 7 54
e 7 65
e 7 66
e 7 67
e 7 72
e 7 78
e 7 82
e 7 84
e 7 85
e 7 90
e 7 93
e 7 95
e 7 98
e 7 103
e 7 104
e 7 110
e 7 111
e 7 116
e 7 120
e 7 123
e 7 126
e 7 127
e 7 132
e 7 133
e 7 148
e 7 150
e 8 11
e 8 13
e 8 14
e 8 16
e 8 19
e 8 21
e 8 24
e 8 25
e 8 26
e 8 30
e 8 31
e 8 33
e 8 34
e 8 37
e 8 38
e 8 41
e 8 43
e 8 44
e 8 45
e 8 52
e 8 53
e 8 54
e 8 55
e 8 56
e 8 57
e 8 59
e 8 60
e 8 64
e 8 65
e 8 66
e 8 67
e 8 70
e 8 72
e 8 73
e 8 77
e 8 78
e 8 81
e 8 82
e 8 84
e 8 86
e 8 87
e 8 88
e 8 91
e 8 92
e 8 94
e 8 95
e 8 98
e 8 99
e 8 101
e 8 103
e 8 104
e 8 106
e 8 112
e 8 114
e 8 116
e 8 117
e 8 118
e 8 122
e 8 125
e 8 129
e 8 131
e 8 132
e 8 133
e 8 134
e 8 138
e 8 139
e 8 140
e 8 144
e 8 148
e 8 149
e 9 13
e 9 14
e 9 21
e 9 22
e 9 26
e 9 28
e 9 30
e 9 45
e 9 51
e 9 53
e 9 55
e 9 58
e 9 59
e 9 60
e 9 64
e 9 69
e 9 74
e 9 76
e 9 77
e 9 79
e 9 80
e 9 81
e 9 85
e 9 86
e 9 91
e 9 100
e 9 101
e 9 106
e 9 107
e 9 108
e 9 109
e 9 112
e 9 116
e 9 117
e 9 119
e 9 121
e 9 123
e 9 125
e 9 128
e 9 129
e 9 130
e 9 133
e 9 137
e 9 139
e 9 141
e 9 144
e 9 149
e 10 13
e 10 16
e 10 19
e 10 21
e 10 25
e 10 26
e 10 29
e 10 30
e 10 31
e 10 32
e 10 33
e 10 34
e 10 37
e 10 38
e 10 41
e 10 43
e 10 44
e 10 45
e 10 53
e 10 54
e 10 56
e 10 59
e 10 60
e 10 66
e 10 67
e 10 72
e 10 73
e 10 78
e 10 82
e 10 84
e 10 86
e 10 87
e 10 88
e 10 92
e 10 94
e 10 95
e 10 96
e 10 99
e 10 101
e 10 103
e 10 104
e 10 106
e 10 109
e 10 113
e 10 114
e 10 122
e 10 129
e 10 131
e 10 132
e 10 133
e 10 138
e 10 139
e 10 140
e 10 143
e 10 144
e 10 145
e 10 148
e 10 149
e 11 17
e 11 20
e 11 29
e 11 31
e 11 32
e 11 34
e 11 40
e 11 41
e 11 44
e 11 48
e 11 51
e 11 58
e 11 61
e 11 62
e 11 63
e 11 67
e 11 71
e 11 74
e 11 80
e 11 85
e 11 86
e 11 96
e 11 97
e 11 100
e 11 103
e 11 104
e 11 105
e 11 106
e 11 108
e 11 109
e 11 110
e 11 111
e 11 113
e 11 114
e 11 115
e 11 119
e 11 121
e 11 122
e 11 124
e 11 127
e 11 129
e 11 135
e 11 136
e 11 137
e 11 138
e 11 140
e 11 141
e 11 142
e 11 143
e 11 144
e 11 145
e 11 146
e 11 147
e 12 16
e 12 19
e 12 21
e 12 23
e 12 25
e 12 26
e 12 30
e 12 31
e 12 32
e 12 33
e 12 34
e 12 37
e 12 38
e 12 41
e 12 42
e 12 43
e 12 44
e 12 45
e 12 50
e 12 54
e 12 56
e 12 59
e 12 60
e 12 66
e 12 67
e 12 68
e 12 72
e 12 73
e 12 74
e 12 75
e 12 78
e 12 82
e 12 84
e 12 85
e 12 86
e 12 87
e 12 88
e 12 92
e 12 93
e 12 94
e 12 95
e 12 96
e 12 99
e 12 101
e 12 102
e 12 103
e 12 104
e 12 106
e 12 108
e 12 109
e 12 114
e 12 122
e 12 123
e 12 126
e 12 129
e 12 131
e 12 132
e 12 133
e 12 139
e 12 140
e 12 141
e 12 143
e 12 145
e 12 148
e 12 150
e 13 15
e 13 22
e 13 23
e 13 28
e 13 35
e 13 39
e 13 40
e 13 42
e 13 45
e 13 47
e 13 48
e 13 50
e 13 66
e 13 71
e 13 80
e 13 82
e 13 84
e 13 85
e 13 89
e 13 98
e 13 103
e 13 104
e 13 120
e 13 126
e 13 127
e 13 132
e 13 135
e 13 142
e 13 143
e 13 148
e 14 17
e 14 21
e 14 23
e 14 25
e 14 28
e 14 31
e 14 32
e 14 33
e 14 34
e 14 39
e 14 40
e 14 41
e 14 42
e 14 44
e 14 45
e 14 47
e 14 48
e 14 50
e 14 51
e 14 56
e 14 61
e 14 66
e 14 68
e 14 71
e 14 73
e 14 74
e 14 75
e 14 80
e 14 82
e 14 84
e 14 85
e 14 86
e 14 87
e 14 89
e 14 96
e 14 97
e 14 100
e 14 101
e 14 102
e 14 103
e 14 104
e 14 105
e 14 106
e 14 108
e 14 109
e 14 114
e 14 119
e 14 120
e 14 122
e 14 126
e 14 127
e 14 129
e 14 131
e 14 132
e 14 135
e 14 137
e 14 139
e 14 140
e 14 141
e 14 142
e 14 143
e 14 145
e 14 146
e 14 148
e 15 16
e 15 19
e 15 21
e 15 23
e 15 25
e 15 26
e 15 30
e 15 31
e 15 33
e 15 34
e 15 37
e 15 38
e 15 41
e 15 42
e 15 43
e 15 44
e 15 45
e 15 50
e 15 53
e 15 54
e 15 56
e 15 59
e 15 60
e 15 66
e 15 67
e 15 68
e 15 72
e 15 73
e 15 74
e 15 75
e 15 78
e 15 82
e 15 84
e 15 85
e 15 86
e 15 87
e 15 88
e 15 92
e 15 93
e 15 94
e 15 95
e 15 99
e 15 101
e 15 102
e 15 103
e 15 104
e 15 106
e 15 108
e 15 114
e 15 122
e 15 123
e 15 126
e 15 129
e 15 131
e 15 132
e 15 133
e 15 138
e 15 139
e 15 140
e 15 141
e 15 144
e 15 148
e 15 149
e 15 150
e 16 17
e 16 18
e 16 20
e 16 21
e 16 22
e 16 25
e 16 28
e 16 32
e 16 34
e 16 35
e 16 40
e 16 45
e 16 46
e 16 47
e 16 48
e 16 51
e 16 55
e 16 58
e 16 62
e 16 64
e 16 69
e 16 70
e 16 71
e 16 72
e 16 76
e 16 80
e 16 83
e 16 86
e 16 89
e 16 91
e 16 96
e 16 97
e 16 98
e 16 100
e 16 101
e 16 102
e 16 107
e 16 109
e 16 115
e 16 117
e 16 118
e 16 119
e 16 120
e 16 121
e 16 124
e 16 126
e 16 134
e 16 135
e 16 137
e 16 139
e 16 143
e 16 144
e 16 146
e 17 18
e 17 23
e 17 38
e 17 39
e 17 42
e 17 45
e 17 50
e 17 66
e 17 78
e 17 82
e 17 83
e 17 85
e 17 90
e 17 95
e 17 103
e 17 104
e 17 110
e 17 116
e 17 117
e 17 123
e 17 132
e 17 133
e 17 148
e 17 149
e 18 19
e 18 22
e 18 26
e 18 27
e 18 29
e 18 31
e 18 32
e 18 33
e 18 34
e 18 40
e 18 44
e 18 48
e 18 49
e 18 51
e 18 52
e 18 57
e 18 58
e 18 61
e 18 63
e 18 69
e 18 71
e 18 74
e 18 76
e 18 77
e 18 79
e 18 80
e 18 81
e 18 85
e 18 88
e 18 89
e 18 93
e 18 96
e 18 97
e 18 100
e 18 105
e 18 106
e 18 107
e 18 108
e 18 109
e 18 113
e 18 118
e 18 119
e 18 121
e 18 132
e 18 136
e 18 137
e 18 138
e 18 139
e 18 141
e 18 142
e 18 143
e 18 145
e 18 146
e 18 147
e 19 22
e 19 23
e 19 35
e 19 39
e 19 42
e 19 50
e 19 62
e 19 63
e 19 69
e 19 76
e 19 78
e 19 80
e 19 82
e 19 83
e 19 85
e 19 90
e 19 103
e 19 104
e 19 107
e 19 110
e 19 113
e 19 115
e 19 117
e 19 121
e 19 124
e 19 142
e 19 147
e 20 22
e 20 23
e 20 24
e 20 26
e 20 29
e 20 31
e 20 33
e 20 42
e 20 44
e 20 50
e 20 51
e 20 56
e 20 58
e 20 61
e 20 63
e 20 68
e 20 69
e 20 73
e 20 74
e 20 75
e 20 76
e 20 77
e 20 79
e 20 80
e 20 81
e 20 82
e 20 85
e 20 87
e 20 88
e 20 92
e 20 100
e 20 102
e 20 105
e 20 106
e 20 107
e 20 108
e 20 109
e 20 113
e 20 119
e 20 121
e 20 132
e 20 134
e 20 136
e 20 137
e 20 138
e 20 139
e 20 141
e 20 142
e 20 145
e 20 147
e 21 22
e 21 35
e 21 43
e 21 46
e 21 48
e 21 49
e 21 50
e 21 62
e 21 63
e 21 65
e 21 69
e 21 76
e 21 83
e 21 90
e 21 107
e 21 111
e 21 113
e 21 115
e 21 121
e 21 124
e 21 142
e 21 147
e 22 25
e 22 26
e 22 30
e 22 31
e 22 33
e 22 34
e 22 37
e 22 38
e 22 39
e 22 41
e 22 43
e 22 44
e 22 45
e 22 46
e 22 53
e 22 54
e 22 56
e 22 59
e 22 60
e 22 66
e 22 67
e 22 72
e 22 73
e 22 78
e 22 82
e 22 84
e 22 86
e 22 87
e 22 88
e 22 90
e 22 92
e 22 94
e 22 95
e 22 99
e 22 101
e 22 103
e 22 104
e 22 106
e 22 110
e 22 111
e 22 114
e 22 120
e 22 122
e 22 127
e 22 129
e 22 131
e 22 132
e 22 133
e 22 138
e 22 139
e 22 140
e 22 144
e 22 148
e 22 149
e 23 27
e 23 29
e 23 30
e 23 36
e 23 37
e 23 38
e 23 41
e 23 47
e 23 48
e 23 51
e 23 52
e 23 53
e 23 55
e 23 57
e 23 58
e 23 60
e 23 61
e 23 63
e 23 64
e 23 67
e 23 77
e 23 81
e 23 88
e 23 91
e 23 96
e 23 99
e 23 101
e 23 105
e 23 107
e 23 110
e 23 111
e 23 112
e 23 113
e 23 114
e 23 115
e 23 116
e 23 117
e 23 118
e 23 119
e 23 125
e 23 127
e 23 130
e 23 131
e 23 136
e 23 138
e 23 142
e 23 144
e 23 145
e 23 146
e 23 147
e 23 148
e 23 149
e 24 28
e 24 40
e 24 45
e 24 47
e 24 48
e 24 62
e 24 63
e 24 66
e 24 67
e 24 71
e 24 80
e 24 85
e 24 89
e 24 103
e 24 104
e 24 110
e 24 111
e 24 113
e 24 115
e 24 121
e 24 124
e 24 126
e 24 127
e 24 132
e 24 135
e 24 142
e 24 143
e 24 147
e 24 148
e 25 35
e 25 38
e 25 62
e 25 63
e 25 69
e 25 76
e 25 80
e 25 83
e 25 85
e 25 95
e 25 103
e 25 104
e 25 107
e 25 110
e 25 113
e 25 115
e 25 116
e 25 117
e 25 121
e 25 124
e 25 128
e 25 133
e 25 142
e 25 147
e 25 149
e 26 28
e 26 35
e 26 39
e 26 40
e 26 43
e 26 45
e 26 46
e 26 47
e 26 48
e 26 62
e 26 63
e 26 66
e 26 67
e 26 69
e 26 71
e 26 72
e 26 76
e 26 78
e 26 80
e 26 83
e 26 84
e 26 89
e 26 90
e 26 98
e 26 103
e 26 107
e 26 110
e 26 111
e 26 113
e 26 115
e 26 117
e 26 120
e 26 121
e 26 124
e 26 126
e 26 127
e 26 132
e 26 135
e 26 142
e 26 143
e 26 147
e 26 148
e 27 29
e 27 31
e 27 35
e 27 39
e 27 41
e 27 42
e 27 44
e 27 50
e 27 55
e 27 56
e 27 64
e 27 68
e 27 73
e 27 74
e 27 75
e 27 76
e 27 78
e 27 82
e 27 83
e 27 85
e 27 86
e 27 87
e 27 90
e 27 91
e 27 102
e 27 103
e 27 104
e 27 106
e 27 108
e 27 109
e 27 110
e 27 113
e 27 114
e 27 117
e 27 122
e 27 124
e 27 129
e 27 138
e 27 140
e 27 141
e 27 144
e 27 145
e 28 29
e 28 31
e 28 32
e 28 34
e 28 43
e 28 44
e 28 46
e 28 56
e 28 57
e 28 65
e 28 70
e 28 73
e 28 77
e 28 82
e 28 87
e 28 88
e 28 90
e 28 91
e 28 94
e 28 96
e 28 106
e 28 109
e 28 111
e 28 112
e 28 113
e 28 138
e 28 143
e 28 145
e 29 36
e 29 37
e 29 42
e 29 45
e 29 46
e 29 47
e 29 49
e 29 50
e 29 52
e 29 54
e 29 65
e 29 71
e 29 72
e 29 79
e 29 82
e 29 85
e 29 89
e 29 93
e 29 98
e 29 116
e 29 120
e 29 123
e 29 126
e 29 128
e 29 130
e 29 133
e 29 135
e 29 150
e 30 35
e 30 40
e 30 43
e 30 46
e 30 48
e 30 62
e 30 63
e 30 69
e 30 71
e 30 76
e 30 80
e 30 83
e 30 89
e 30 90
e 30 98
e 30 107
e 30 111
e 30 113
e 30 115
e 30 121
e 30 124
e 30 132
e 30 142
e 30 143
e 30 147
e 31 35
e 31 36
e 31 37
e 31 40
e 31 45
e 31 46
e 31 47
e 31 48
e 31 49
e 31 52
e 31 54
e 31 62
e 31 65
e 31 69
e 31 71
e 31 72
e 31 76
e 31 79
e 31 80
e 31 83
e 31 89
e 31 93
e 31 98
e 31 107
e 31 115
e 31 116
e 31 117
e 31 120
e 31 121
e 31 123
e 31 124
e 31 126
e 31 128
e 31 130
e 31 135
e 31 143
e 31 149
e 31 150
e 32 38
e 32 39
e 32 50
e 32 62
e 32 63
e 32 69
e 32 78
e 32 79
e 32 83
e 32 90
e 32 95
e 32 104
e 32 110
e 32 116
e 32 117
e 32 123
e 32 128
e 32 130
e 32 133
e 32 148
e 32 149
e 33 35
e 33 36
e 33 46
e 33 48
e 33 49
e 33 50
e 33 62
e 33 65
e 33 69
e 33 72
e 33 76
e 33 83
e 33 107
e 33 115
e 33 116
e 33 117
e 33 120
e 33 121
e 33 124
e 33 128
e 33 133
e 33 135
e 33 149
e 33 150
e 34 35
e 34 38
e 34 39
e 34 50
e 34 62
e 34 63
e 34 69
e 34 76
e 34 78
e 34 79
e 34 83
e 34 90
e 34 95
e 34 104
e 34 107
e 34 110
e 34 113
e 34 115
e 34 116
e 34 117
e 34 121
e 34 123
e 34 124
e 34 128
e 34 130
e 34 133
e 34 142
e 34 147
e 34 148
e 34 149
e 35 36
e 35 37
e 35 38
e 35 41
e 35 43
e 35 44
e 35 45
e 35 47
e 35 53
e 35 54
e 35 56
e 35 58
e 35 59
e 35 60
e 35 61
e 35 63
e 35 66
e 35 67
e 35 71
e 35 72
e 35 73
e 35 78
e 35 82
e 35 84
e 35 86
e 35 87
e 35 88
e 35 92
e 35 94
e 35 95
e 35 97
e 35 99
e 35 101
e 35 103
e 35 104
e 35 106
e 35 114
e 35 122
e 35 129
e 35 130
e 35 131
e 35 132
e 35 133
e 35 136
e 35 137
e 35 138
e 35 139
e 35 140
e 35 144
e 35 146
e 35 148
e 35 149
e 36 42
e 36 44
e 36 50
e 36 56
e 36 68
e 36 73
e 36 74
e 36 75
e 36 76
e 36 82
e 36 83
e 36 85
e 36 87
e 36 90
e 36 91
e 36 102
e 36 106
e 36 108
e 36 109
e 36 113
e 36 124
e 36 132
e 36 134
e 36 138
e 36 139
e 36 141
e 36 145
e 37 42
e 37 44
e 37 50
e 37 51
e 37 56
e 37 58
e 37 61
e 37 62
e 37 63
e 37 68
e 37 69
e 37 73
e 37 74
e 37 75
e 37 76
e 37 80
e 37 82
e 37 83
e 37 85
e 37 87
e 37 90
e 37 91
e 37 100
e 37 102
e 37 105
e 37 106
e 37 107
e 37 108
e 37 109
e 37 113
e 37 115
e 37 119
e 37 121
e 37 124
e 37 136
e 37 137
e 37 138
e 37 141
e 37 142
e 37 145
e 37 147
e 38 40
e 38 46
e 38 48
e 38 51
e 38 58
e 38 62
e 38 68
e 38 69
e 38 70
e 38 71
e 38 73
e 38 74
e 38 76
e 38 80
e 38 83
e 38 89
e 38 91
e 38 96
e 38 97
e 38 98
e 38 100
e 38 102
e 38 107
e 38 109
e 38 115
e 38 118
e 38 119
e 38 121
e 38 124
e 38 134
e 38 137
e 38 139
e 38 143
e 38 146
e 39 40
e 39 48
e 39 49
e 39 51
e 39 52
e 39 57
e 39 58
e 39 69
e 39 71
e 39 74
e 39 76
e 39 77
e 39 79
e 39 80
e 39 81
e 39 85
e 39 89
e 39 91
e 39 93
e 39 96
e 39 97
e 39 100
e 39 106
e 39 107
e 39 108
e 39 109
e 39 112
e 39 118
e 39 119
e 39 121
e 39 137
e 39 139
e 39 141
e 39 143
e 39 146
e 40 41
e 40 50
e 40 53
e 40 55
e 40 59
e 40 60
e 40 64
e 40 68
e 40 75
e 40 77
e 40 78
e 40 81
e 40 83
e 40 87
e 40 88
e 40 90
e 40 91
e 40 92
e 40 95
e 40 99
e 40 101
e 40 104
e 40 108
e 40 110
e 40 112
e 40 114
e 40 116
e 40 117
e 40 123
e 40 125
e 40 129
e 40 131
e 40 133
e 40 134
e 40 138
e 40 140
e 40 144
e 40 148
e 40 149
e 41 46
e 41 48
e 41 49
e 41 52
e 41 54
e 41 62
e 41 65
e 41 69
e 41 71
e 41 76
e 41 79
e 41 80
e 41 83
e 41 89
e 41 93
e 41 98
e 41 107
e 41 115
e 41 121
e 41 124
e 41 143
e 42 47
e 42 48
e 42 51
e 42 52
e 42 53
e 42 55
e 42 57
e 42 58
e 42 59
e 42 60
e 42 61
e 42 63
e 42 64
e 42 67
e 42 77
e 42 81
e 42 91
e 42 95
e 42 96
e 42 99
e 42 101
e 42 105
e 42 107
e 42 110
e 42 111
e 42 112
e 42 113
e 42 114
e 42 115
e 42 116
e 42 117
e 42 118
e 42 119
e 42 125
e 42 127
e 42 130
e 42 131
e 42 136
e 42 138
e 42 140
e 42 142
e 42 144
e 42 145
e 42 146
e 42 147
e 42 148
e 42 149
e 43 45
e 43 51
e 43 53
e 43 55
e 43 58
e 43 59
e 43 62
e 43 69
e 43 74
e 43 76
e 43 77
e 43 79
e 43 80
e 43 81
e 43 83
e 43 85
e 43 86
e 43 100
e 43 101
e 43 106
e 43 107
e 43 108
e 43 109
e 43 115
e 43 119
e 43 121
e 43 123
e 43 124
e 43 125
e 43 128
e 43 129
e 43 130
e 43 133
e 43 137
e 43 139
e 43 141
e 44 46
e 44 47
e 44 48
e 44 49
e 44 50
e 44 52
e 44 54
e 44 62
e 44 65
e 44 69
e 44 72
e 44 76
e 44 79
e 44 83
e 44 89
e 44 93
e 44 98
e 44 107
e 44 115
e 44 116
e 44 117
e 44 120
e 44 121
e 44 123
e 44 124
e 44 126
e 44 128
e 44 130
e 44 133
e 44 135
e 44 149
e 44 150
e 45 46
e 45 48
e 45 49
e 45 50
e 45 51
e 45 57
e 45 58
e 45 61
e 45 62
e 45 63
e 45 65
e 45 68
e 45 69
e 45 70
e 45 75
e 45 76
e 45 77
e 45 83
e 45 87
e 45 88
e 45 90
e 45 91
e 45 94
e 45 96
e 45 105
e 45 107
e 45 108
e 45 111
e 45 112
e 45 113
e 45 115
e 45 119
e 45 121
e 45 124
e 45 136
e 45 138
e 45 142
e 45 145
e 45 146
e 45 147
e 46 51
e 46 53
e 46 55
e 46 58
e 46 59
e 46 61
e 46 63
e 46 66
e 46 69
e 46 74
e 46 76
e 46 77
e 46 79
e 46 80
e 46 81
e 46 85
e 46 86
e 46 88
e 46 95
e 46 99
e 46 100
e 46 101
e 46 103
e 46 104
e 46 105
e 46 106
e 46 107
e 46 108
e 46 109
e 46 113
e 46 114
e 46 119
e 46 121
e 46 122
e 46 123
e 46 125
e 46 128
e 46 129
e 46 130
e 46 131
e 46 132
e 46 133
e 46 136
e 46 137
e 46 138
e 46 139
e 46 140
e 46 141
e 46 142
e 46 145
e 46 147
e 46 148
e 47 50
e 47 56
e 47 68
e 47 73
e 47 74
e 47 75
e 47 76
e 47 77
e 47 82
e 47 83
e 47 85
e 47 87
e 47 88
e 47 90
e 47 91
e 47 102
e 47 106
e 47 108
e 47 109
e 47 112
e 47 113
e 47 124
e 47 138
e 47 141
e 47 145
e 48 50
e 48 53
e 48 55
e 48 56
e 48 59
e 48 60
e 48 64
e 48 66
e 48 68
e 48 73
e 48 74
e 48 75
e 48 77
e 48 78
e 48 81
e 48 82
e 48 83
e 48 85
e 48 86
e 48 87
e 48 88
e 48 90
e 48 91
e 48 92
e 48 95
e 48 99
e 48 101
e 48 102
e 48 103
e 48 104
e 48 106
e 48 108
e 48 110
e 48 112
e 48 114
e 48 116
e 48 117
e 48 122
e 48 123
e 48 125
e 48 129
e 48 131
e 48 132
e 48 133
e 48 134
e 48 138
e 48 139
e 48 140
e 48 141
e 48 144
e 48 148
e 48 149
e 49 55
e 49 56
e 49 64
e 49 66
e 49 73
e 49 78
e 49 82
e 49 86
e 49 87
e 49 90
e 49 91
e 49 101
e 49 103
e 49 104
e 49 106
e 49 109
e 49 110
e 49 113
e 49 114
e 49 117
e 49 122
e 49 129
e 49 131
e 49 132
e 49 134
e 49 138
e 49 139
e 49 140
e 49 144
e 49 145
e 49 148
e 50 51
e 50 52
e 50 53
e 50 55
e 50 57
e 50 58
e 50 60
e 50 61
e 50 63
e 50 64
e 50 66
e 50 67
e 50 71
e 50 77
e 50 80
e 50 81
e 50 86
e 50 91
e 50 96
e 50 97
e 50 99
e 50 100
e 50 101
e 50 103
e 50 105
e 50 107
e 50 109
e 50 110
e 50 111
e 50 112
e 50 113
e 50 114
e 50 115
e 50 116
e 50 117
e 50 118
e 50 119
e 50 122
e 50 125
e 50 127
e 50 130
e 50 131
e 50 132
e 50 136
e 50 137
e 50 138
e 50 139
e 50 142
e 50 143
e 50 144
e 50 145
e 50 146
e 50 147
e 50 148
e 50 149
e 51 52
e 51 54
e 51 65
e 51 66
e 51 67
e 51 72
e 51 78
e 51 82
e 51 83
e 51 84
e 51 85
e 51 90
e 51 93
e 51 95
e 51 98
e 51 103
e 51 104
e 51 110
e 51 111
e 51 116
e 51 117
e 51 120
e 51 123
e 51 126
e 51 127
e 51 132
e 51 133
e 51 148
e 51 149
e 51 150
e 52 56
e 52 58
e 52 61
e 52 62
e 52 63
e 52 68
e 52 73
e 52 74
e 52 75
e 52 78
e 52 80
e 52 82
e 52 85
e 52 86
e 52 87
e 52 90
e 52 100
e 52 102
e 52 103
e 52 104
e 52 105
e 52 106
e 52 108
e 52 109
e 52 110
e 52 113
e 52 114
e 52 115
e 52 119
e 52 121
e 52 122
e 52 124
e 52 129
e 52 136
e 52 137
e 52 138
e 52 140
e 52 141
e 52 142
e 52 144
e 52 145
e 52 147
e 53 71
e 53 80
e 53 82
e 53 85
e 53 89
e 53 90
e 53 98
e 53 111
e 53 132
e 53 142
e 53 143
e 54 55
e 54 58
e 54 61
e 54 62
e 54 63
e 54 64
e 54 69
e 54 74
e 54 76
e 54 80
e 54 83
e 54 85
e 54 86
e 54 91
e 54 100
e 54 103
e 54 104
e 54 105
e 54 106
e 54 107
e 54 108
e 54 109
e 54 110
e 54 113
e 54 114
e 54 115
e 54 117
e 54 119
e 54 121
e 54 122
e 54 124
e 54 129
e 54 136
e 54 137
e 54 138
e 54 140
e 54 141
e 54 142
e 54 144
e 54 145
e 54 147
e 55 71
e 55 79
e 55 80
e 55 82
e 55 85
e 55 89
e 55 90
e 55 93
e 55 111
e 55 132
e 55 142
e 55 143
e 56 62
e 56 63
e 56 67
e 56 69
e 56 76
e 56 79
e 56 83
e 56 89
e 56 93
e 56 95
e 56 107
e 56 110
e 56 111
e 56 113
e 56 115
e 56 116
e 56 117
e 56 121
e 56 123
e 56 124
e 56 126
e 56 127
e 56 128
e 56 130
e 56 135
e 56 142
e 56 147
e 56 148
e 56 149
e 56 150
e 57 62
e 57 63
e 57 66
e 57 78
e 57 80
e 57 82
e 57 85
e 57 90
e 57 103
e 57 104
e 57 110
e 57 113
e 57 115
e 57 121
e 57 124
e 57 132
e 57 142
e 57 147
e 57 148
e 58 65
e 58 66
e 58 67
e 58 72
e 58 78
e 58 82
e 58 84
e 58 85
e 58 90
e 58 93
e 58 95
e 58 98
e 58 103
e 58 104
e 58 110
e 58 111
e 58 116
e 58 120
e 58 123
e 58 126
e 58 127
e 58 132
e 58 133
e 58 143
e 58 148
e 58 150
e 59 62
e 59 63
e 59 69
e 59 71
e 59 76
e 59 80
e 59 83
e 59 89
e 59 90
e 59 98
e 59 107
e 59 111
e 59 113
e 59 115
e 59 121
e 59 124
e 59 132
e 59 142
e 59 143
e 59 147
e 60 62
e 60 63
e 60 69
e 60 71
e 60 76
e 60 80
e 60 82
e 60 83
e 60 85
e 60 89
e 60 98
e 60 107
e 60 113
e 60 115
e 60 121
e 60 124
e 60 132
e 60 142
e 60 143
e 60 147
e 61 65
e 61 72
e 61 76
e 61 82
e 61 83
e 61 85
e 61 93
e 61 98
e 61 116
e 61 117
e 61 120
e 61 123
e 61 124
e 61 126
e 61 133
e 61 143
e 61 149
e 61 150
e 62 64
e 62 65
e 62 66
e 62 67
e 62 70
e 62 72
e 62 73
e 62 78
e 62 81
e 62 82
e 62 84
e 62 86
e 62 87
e 62 88
e 62 92
e 62 94
e 62 95
e 62 96
e 62 98
e 62 99
e 62 101
e 62 103
e 62 104
e 62 106
e 62 109
e 62 112
e 62 114
e 62 116
e 62 118
e 62 122
e 62 125
e 62 129
e 62 131
e 62 132
e 62 133
e 62 134
e 62 139
e 62 140
e 62 143
e 62 145
e 62 148
e 63 64
e 63 65
e 63 68
e 63 70
e 63 72
e 63 73
e 63 74
e 63 75
e 63 81
e 63 82
e 63 85
e 63 86
e 63 87
e 63 92
e 63 93
e 63 94
e 63 96
e 63 98
e 63 101
e 63 102
e 63 106
e 63 108
e 63 109
e 63 112
e 63 116
e 63 118
e 63 120
e 63 123
e 63 125
e 63 126
e 63 129
e 63 133
e 63 134
e 63 139
e 63 141
e 63 143
e 63 150
e 64 71
e 64 79
e 64 80
e 64 82
e 64 85
e 64 89
e 64 93
e 64 113
e 64 115
e 64 121
e 64 124
e 64 132
e 64 142
e 64 143
e 64 147
e 65 66
e 65 74
e 65 80
e 65 85
e 65 86
e 65 100
e 65 101
e 65 103
e 65 104
e 65 105
e 65 106
e 65 108
e 65 109
e 65 110
e 65 113
e 65 114
e 65 115
e 65 119
e 65 121
e 65 122
e 65 124
e 65 129
e 65 131
e 65 132
e 65 136
e 65 137
e 65 138
e 65 139
e 65 140
e 65 141
e 65 142
e 65 144
e 65 145
e 65 147
e 65 148
e 66 68
e 66 69
e 66 70
e 66 75
e 66 76
e 66 77
e 66 83
e 66 87
e 66 91
e 66 94
e 66 96
e 66 107
e 66 108
e 66 112
e 66 115
e 66 119
e 66 121
e 66 124
e 66 146
e 67 68
e 67 69
e 67 73
e 67 74
e 67 75
e 67 76
e 67 77
e 67 79
e 67 80
e 67 81
e 67 82
e 67 83
e 67 85
e 67 87
e 67 92
e 67 100
e 67 102
e 67 106
e 67 107
e 67 108
e 67 109
e 67 115
e 67 119
e 67 121
e 67 124
e 67 134
e 67 137
e 67 139
e 67 141
e 68 71
e 68 80
e 68 103
e 68 107
e 68 110
e 68 111
e 68 113
e 68 115
e 68 116
e 68 117
e 68 127
e 68 130
e 68 132
e 68 142
e 68 143
e 68 147
e 68 148
e 68 149
e 69 72
e 69 73
e 69 78
e 69 82
e 69 84
e 69 86
e 69 87
e 69 88
e 69 90
e 69 92
e 69 94
e 69 95
e 69 96
e 69 99
e 69 101
e 69 103
e 69 104
e 69 106
e 69 109
e 69 110
e 69 111
e 69 114
e 69 120
e 69 122
e 69 127
e 69 129
e 69 131
e 69 132
e 69 133
e 69 139
e 69 140
e 69 143
e 69 145
e 69 148
e 70 79
e 70 80
e 70 85
e 70 95
e 70 103
e 70 104
e 70 110
e 70 113
e 70 115
e 70 121
e 70 123
e 70 124
e 70 128
e 70 130
e 70 132
e 70 133
e 70 142
e 70 147
e 70 148
e 70 149
e 71 75
e 71 76
e 71 77
e 71 78
e 71 81
e 71 83
e 71 87
e 71 88
e 71 90
e 71 91
e 71 92
e 71 95
e 71 99
e 71 101
e 71 104
e 71 108
e 71 110
e 71 112
e 71 113
e 71 114
e 71 116
e 71 117
e 71 123
e 71 124
e 71 125
e 71 129
e 71 131
e 71 133
e 71 134
e 71 138
e 71 140
e 71 144
e 71 145
e 71 148
e 71 149
e 72 74
e 72 76
e 72 77
e 72 79
e 72 80
e 72 81
e 72 83
e 72 85
e 72 88
e 72 100
e 72 105
e 72 106
e 72 107
e 72 108
e 72 109
e 72 113
e 72 115
e 72 119
e 72 121
e 72 124
e 72 132
e 72 136
e 72 137
e 72 138
e 72 139
e 72 141
e 72 142
e 72 145
e 72 147
e 73 76
e 73 79
e 73 83
e 73 89
e 73 93
e 73 107
e 73 110
e 73 111
e 73 113
e 73 115
e 73 116
e 73 117
e 73 121
e 73 123
e 73 124
e 73 126
e 73 127
e 73 128
e 73 130
e 73 135
e 73 142
e 73 147
e 73 148
e 73 149
e 73 150
e 74 78
e 74 84
e 74 90
e 74 98
e 74 107
e 74 110
e 74 111
e 74 113
e 74 115
e 74 116
e 74 117
e 74 120
e 74 127
e 74 130
e 74 142
e 74 147
e 74 148
e 74 149
e 75 80
e 75 95
e 75 103
e 75 107
e 75 110
e 75 111
e 75 113
e 75 115
e 75 116
e 75 117
e 75 127
e 75 130
e 75 132
e 75 142
e 75 143
e 75 147
e 75 148
e 75 149
e 76 78
e 76 82
e 76 84
e 76 86
e 76 87
e 76 88
e 76 90
e 76 92
e 76 94
e 76 95
e 76 97
e 76 99
e 76 101
e 76 103
e 76 104
e 76 106
e 76 110
e 76 111
e 76 114
e 76 120
e 76 122
e 76 127
e 76 129
e 76 130
e 76 131
e 76 132
e 76 133
e 76 137
e 76 139
e 76 140
e 76 146
e 76 148
e 77 78
e 77 80
e 77 82
e 77 84
e 77 85
e 77 89
e 77 90
e 77 103
e 77 104
e 77 110
e 77 111
e 77 120
e 77 126
e 77 127
e 77 132
e 77 135
e 77 142
e 77 143
e 77 148
e 78 79
e 78 80
e 78 81
e 78 83
e 78 85
e 78 89
e 78 93
e 78 96
e 78 97
e 78 100
e 78 106
e 78 107
e 78 108
e 78 109
e 78 115
e 78 118
e 78 119
e 78 121
e 78 124
e 78 137
e 78 139
e 78 141
e 78 143
e 78 146
e 79 82
e 79 84
e 79 86
e 79 87
e 79 90
e 79 91
e 79 96
e 79 103
e 79 104
e 79 106
e 79 109
e 79 110
e 79 111
e 79 113
e 79 114
e 79 117
e 79 120
e 79 122
e 79 127
e 79 129
e 79 138
e 79 140
e 79 143
e 79 144
e 79 145
e 80 81
e 80 83
e 80 84
e 80 87
e 80 88
e 80 90
e 80 91
e 80 92
e 80 93
e 80 94
e 80 95
e 80 98
e 80 99
e 80 101
e 80 104
e 80 108
e 80 110
e 80 111
e 80 112
e 80 114
e 80 116
e 80 117
e 80 118
e 80 120
e 80 123
e 80 125
e 80 126
e 80 127
e 80 129
e 80 131
e 80 133
e 80 134
e 80 138
e 80 140
e 80 144
e 80 148
e 80 149
e 80 150
e 81 82
e 81 84
e 81 85
e 81 90
e 81 103
e 81 104
e 81 110
e 81 111
e 81 113
e 81 115
e 81 120
e 81 121
e 81 124
e 81 127
e 81 135
e 81 142
e 81 143
e 81 147
e 82 83
e 82 89
e 82 91
e 82 93
e 82 96
e 82 99
e 82 101
e 82 105
e 82 107
e 82 110
e 82 111
e 82 112
e 82 113
e 82 114
e 82 115
e 82 116
e 82 117
e 82 118
e 82 119
e 82 121
e 82 123
e 82 124
e 82 125
e 82 126
e 82 127
e 82 128
e 82 130
e 82 131
e 82 135
e 82 136
e 82 138
e 82 142
e 82 144
e 82 145
e 82 146
e 82 147
e 82 148
e 82 149
e 82 150
e 83 84
e 83 86
e 83 87
e 83 88
e 83 92
e 83 94
e 83 95
e 83 96
e 83 97
e 83 99
e 83 100
e 83 101
e 83 103
e 83 104
e 83 105
e 83 106
e 83 109
e 83 114
e 83 119
e 83 122
e 83 129
e 83 130
e 83 131
e 83 132
e 83 133
e 83 137
e 83 139
e 83 140
e 83 142
e 83 143
e 83 145
e 83 146
e 83 148
e 84 85
e 84 91
e 84 100
e 84 106
e 84 107
e 84 108
e 84 109
e 84 112
e 84 115
e 84 119
e 84 121
e 84 124
e 84 137
e 84 139
e 84 141
e 85 90
e 85 91
e 85 92
e 85 94
e 85 96
e 85 98
e 85 99
e 85 101
e 85 105
e 85 107
e 85 110
e 85 111
e 85 112
e 85 113
e 85 114
e 85 115
e 85 116
e 85 117
e 85 118
e 85 119
e 85 120
e 85 125
e 85 127
e 85 130
e 85 131
e 85 134
e 85 136
e 85 138
e 85 142
e 85 144
e 85 145
e 85 146
e 85 147
e 85 148
e 85 149
e 86 89
e 86 90
e 86 93
e 86 98
e 86 107
e 86 111
e 86 113
e 86 115
e 86 121
e 86 124
e 86 142
e 86 147
e 87 89
e 87 93
e 87 103
e 87 107
e 87 110
e 87 111
e 87 113
e 87 115
e 87 116
e 87 117
e 87 121
e 87 123
e 87 124
e 87 126
e 87 127
e 87 128
e 87 130
e 87 132
e 87 135
e 87 142
e 87 143
e 87 147
e 87 148
e 87 149
e 87 150
e 88 89
e 88 98
e 88 107
e 88 115
e 88 117
e 88 120
e 88 121
e 88 124
e 88 126
e 88 135
e 88 143
e 89 90
e 89 91
e 89 95
e 89 99
e 89 103
e 89 104
e 89 106
e 89 109
e 89 110
e 89 112
e 89 113
e 89 114
e 89 116
e 89 117
e 89 122
e 89 125
e 89 129
e 89 133
e 89 138
e 89 140
e 89 144
e 89 145
e 89 149
e 90 93
e 90 96
e 90 97
e 90 100
e 90 101
e 90 106
e 90 107
e 90 108
e 90 109
e 90 118
e 90 119
e 90 121
e 90 123
e 90 125
e 90 126
e 90 128
e 90 129
e 90 130
e 90 133
e 90 135
e 90 137
e 90 139
e 90 141
e 90 143
e 90 146
e 90 150
e 91 93
e 91 95
e 91 103
e 91 104
e 91 120
e 91 123
e 91 126
e 91 127
e 91 128
e 91 130
e 91 132
e 91 133
e 91 135
e 91 142
e 91 143
e 91 148
e 91 150
e 92 103
e 92 104
e 92 107
e 92 110
e 92 111
e 92 113
e 92 115
e 92 117
e 92 121
e 92 124
e 92 127
e 92 135
e 92 142
e 92 143
e 92 147
e 93 100
e 93 103
e 93 104
e 93 105
e 93 106
e 93 107
e 93 109
e 93 110
e 93 113
e 93 114
e 93 115
e 93 117
e 93 119
e 93 122
e 93 129
e 93 136
e 93 137
e 93 138
e 93 140
e 93 142
e 93 144
e 93 145
e 93 147
e 94 103
e 94 104
e 94 107
e 94 110
e 94 113
e 94 115
e 94 117
e 94 121
e 94 124
e 94 132
e 94 142
e 94 147
e 94 148
e 95 96
e 95 97
e 95 98
e 95 100
e 95 102
e 95 107
e 95 109
e 95 115
e 95 118
e 95 119
e 95 121
e 95 124
e 95 134
e 95 137
e 95 139
e 95 141
e 95 143
e 95 146
e 96 103
e 96 104
e 96 110
e 96 116
e 96 117
e 96 123
e 96 128
e 96 130
e 96 132
e 96 133
e 96 148
e 96 149
e 97 104
e 97 110
e 97 113
e 97 116
e 97 117
e 97 123
e 97 124
e 97 133
e 97 148
e 97 149
e 98 99
e 98 100
e 98 103
e 98 104
e 98 105
e 98 106
e 98 108
e 98 109
e 98 110
e 98 113
e 98 114
e 98 115
e 98 119
e 98 121
e 98 122
e 98 124
e 98 128
e 98 129
e 98 133
e 98 136
e 98 137
e 98 138
e 98 140
e 98 141
e 98 142
e 98 144
e 98 145
e 98 147
e 98 149
e 99 107
e 99 115
e 99 121
e 99 124
e 99 143
e 100 104
e 100 110
e 100 111
e 100 116
e 100 117
e 100 120
e 100 123
e 100 126
e 100 127
e 100 133
e 100 148
e 100 149
e 100 150
e 101 107
e 101 111
e 101 113
e 101 115
e 101 121
e 101 124
e 101 142
e 101 143
e 101 147
e 102 104
e 102 107
e 102 110
e 102 111
e 102 113
e 102 115
e 102 116
e 102 117
e 102 127
e 102 130
e 102 133
e 102 142
e 102 147
e 102 148
e 102 149
e 103 107
e 103 108
e 103 112
e 103 115
e 103 118
e 103 119
e 103 121
e 103 124
e 103 134
e 103 146
e 104 107
e 104 109
e 104 112
e 104 115
e 104 118
e 104 119
e 104 121
e 104 124
e 104 134
e 104 137
e 104 139
e 104 143
e 104 146
e 105 116
e 105 117
e 105 120
e 105 123
e 105 126
e 105 133
e 105 149
e 105 150
e 106 107
e 106 110
e 106 111
e 106 113
e 106 115
e 106 116
e 106 117
e 106 120
e 106 121
e 106 123
e 106 124
e 106 126
e 106 127
e 106 128
e 106 130
e 106 135
e 106 142
e 106 147
e 106 148
e 106 149
e 106 150
e 107 108
e 107 110
e 107 111
e 107 114
e 107 120
e 107 122
e 107 123
e 107 126
e 107 127
e 107 129
e 107 131
e 107 132
e 107 133
e 107 139
e 107 140
e 107 141
e 107 148
e 107 150
e 108 110
e 108 111
e 108 113
e 108 115
e 108 116
e 108 117
e 108 120
e 108 127
e 108 130
e 108 132
e 108 142
e 108 143
e 108 147
e 108 148
e 108 149
e 109 110
e 109 111
e 109 116
e 109 117
e 109 120
e 109 123
e 109 126
e 109 127
e 109 128
e 109 130
e 109 133
e 109 135
e 109 148
e 109 149
e 109 150
e 110 118
e 110 119
e 110 121
e 110 134
e 110 137
e 110 139
e 110 141
e 110 143
e 110 146
e 111 119
e 111 121
e 111 123
e 111 125
e 111 128
e 111 129
e 111 130
e 111 133
e 111 134
e 111 137
e 111 139
e 111 141
e 112 113
e 112 115
e 112 120
e 112 121
e 112 124
e 112 126
e 112 127
e 112 132
e 112 135
e 112 142
e 112 143
e 112 147
e 112 148
e 113 116
e 113 118
e 113 120
e 113 123
e 113 125
e 113 126
e 113 128
e 113 129
e 113 130
e 113 133
e 113 134
e 113 135
e 113 137
e 113 139
e 113 141
e 113 146
e 113 150
e 114 115
e 114 121
e 114 124
e 114 143
e 115 116
e 115 118
e 115 122
e 115 123
e 115 125
e 115 126
e 115 129
e 115 131
e 115 132
e 115 133
e 115 134
e 115 139
e 115 140
e 115 141
e 115 148
e 115 150
e 116 119
e 116 121
e 116 124
e 116 132
e 116 136
e 116 137
e 116 138
e 116 139
e 116 141
e 116 142
e 116 143
e 116 145
e 116 146
e 116 147
e 117 119
e 117 132
e 117 137
e 117 139
e 117 141
e 117 142
e 117 143
e 117 145
e 117 146
e 118 121
e 118 124
e 118 128
e 118 133
e 118 142
e 118 147
e 118 149
e 119 120
e 119 123
e 119 126
e 119 127
e 119 132
e 119 133
e 119 148
e 119 149
e 119 150
e 120 121
e 120 132
e 120 136
e 120 137
e 120 138
e 120 139
e 120 141
e 120 142
e 120 145
e 120 147
e 121 122
e 121 125
e 121 127
e 121 129
e 121 131
e 121 132
e 121 133
e 121 134
e 121 139
e 121 140
e 121 148
e 122 124
e 123 136
e 123 137
e 123 138
e 123 142
e 123 143
e 123 145
e 123 146
e 123 147
e 124 125
e 124 129
e 124 130
e 124 131
e 124 132
e 124 133
e 124 134
e 124 137
e 124 139
e 124 140
e 124 146
e 124 148
e 125 132
e 125 142
e 125 143
e 125 147
e 126 136
e 126 137
e 126 138
e 126 142
e 126 145
e 126 147
e 127 134
e 127 137
e 127 139
e 127 141
e 128 132
e 128 134
e 128 138
e 128 139
e 128 143
e 128 145
e 129 132
e 129 142
e 129 143
e 129 147
e 130 138
e 130 141
e 130 143
e 130 145
e 131 143
e 132 133
e 132 135
e 132 144
e 132 146
e 132 149
e 132 150
e 133 134
e 133 136
e 133 137
e 133 138
e 133 139
e 133 142
e 133 143
e 133 145
e 133 146
e 133 147
e 134 135
e 134 142
e 134 143
e 134 147
e 134 149
e 134 150
e 135 138
e 135 139
e 135 145
e 136 143
e 136 150
e 137 148
e 137 149
e 137 150
e 138 143
e 138 150
e 139 142
e 139 147
e 139 149
e 139 150
e 140 143
e 141 142
e 141 147
e 141 148
e 141 149
e 142 144
e 142 149
e 142 150
e 143 144
e 143 148
e 143 149
e 145 149
e 145 150
e 146 148
e 146 149
e 147 150
